1237700
103, 30, 6, 95, 32, 61, 43, 85, 20, 44, 63, 83, 3, 25, 107, 16, 94, 59, 84, 51, 2, 81, 46, 29, 52, 34, 35, 98, 101, 1, 5, 82, 45, 90, 109, 24, 10, 66, 77, 9, 37, 26, 38, 41, 72, 57, 75, 86, 27, 69, 70, 14, 39, 31, 49, 11, 91, 89, 97, 47, 71, 99, 105, 87, 62, 73, 76, 18, 50, 7, 65, 12, 36, 28, 8, 40, 68, 55, 78, 33, 108, 106, 60, 42, 88, 19, 96, 93, 13, 21, 80, 15, 23, 64, 22, 104, 58, 102, 54, 100, 53, 17, 48, 74, 79, 67, 4, 92, 56
